
  32    1
  10

   0   0   5 2 3 4 5 8 
   8   1   3 10 9 7 
   9   5   3 11 10 9 
  10   6   2 12 6 
   3   5   2 10 6 
   2   4   3 14 13 11 
   9   5   3 14 13 11 
   8   5   1 9 
   2   4   4 16 15 14 13 
   2   5   4 20 16 15 14 
   9   3   4 24 20 16 15 
   4   4   4 20 19 17 16 
   9   5   4 20 19 18 17 
   1   4   3 19 18 17 
   1   6   3 22 21 19 
   4   3   2 22 18 
   8   1   4 25 24 22 21 
   7   3   4 28 25 23 21 
   7   1   3 28 25 23 
   3   3   3 28 26 25 
   1   6   2 27 26 
   2   7   3 31 29 28 
  10   2   2 31 26 
   5   5   2 28 26 
   5   5   3 31 30 29 
   5   4   2 30 29 
   4   3   2 31 29 
   6   4   1 30 
   7   1   1 32
   2   5   1 32
   7   5   1 32
   0   0   0 
